Li B  P  H  S  Cl
 1.0000000000000000
    20.2173060624009651    0.3691224663121589    0.3266237692765953
     0.0424279021487577    9.9710127207382850    0.0984764446729482
     0.0235806371975198   -0.0313116384368627    9.9570027383662794
 Li  B   P   H   S   Cl 
  48   1   8   4  40   7
Cartesian
  4.5347309618499203  7.2958131990583963  3.5725559118901846
 14.6144941512100051  7.4507274243328352  3.6607898842157605
  4.6902009761469916  1.7796820004750442  2.3246275917442252
 14.8425225964721132  1.9387987548368386  2.4664479087212792
  3.6049105558687518  8.9225091987059333  0.8810503609327416
 13.6975940495187114  9.1629241357074172  0.9773451137590320
  8.4947772084989861  2.6047520486843316  2.1957629260244049
 18.7354057144177162  2.7868456624811824  2.4464077869867342
  3.7095463732320475  0.0829120613009069  5.2487194086401328
 13.8071844424417876  0.2597339488968606  5.3773046513622331
  6.4633056737216892  9.2326008856690507  3.5425563892852048
 16.5477958295878409  9.3890405626733191  3.7131310333411398
  4.4999608508334692  2.2755807167709565  8.4660225977033541
 14.6706100742389065  2.4478695662181051  8.5687767370248675
  6.4174453406831136  4.2154600532946551  8.5321958799922779
 16.5906007570964640  4.4060017588101612  8.5711760123949752
  1.8185552812646681  0.2487188963206728  3.2753950308429185
 11.9154301949594537  0.4186134810228779  3.4040697291459883
  1.8416460522326679  5.2198219123672711  8.3050698412364721
 12.0188385127234021  5.4934206301450947  8.4549075439092523
  3.5644978397610241  3.9273312858635823  5.8126226295045678
 13.6430122042918462  4.0326350505885786  5.9284198457767490
  3.6981465476795248  5.0925445438332275  0.3186365520885329
 14.0268976508969132  5.0588008295071702  0.4276533431572229
  9.5596428325140437  0.3122548903416528  5.6298244668422415
 19.6649112507743240  0.4939157648019727  5.7855259493649021
  1.3650478144432912  0.0978145791089619  7.4079746237283564
 11.4956184030511626  0.2695631314332417  7.5554663721980297
  6.9613942004306457 10.0722239300006216  8.7082951827819421
 17.0460100754002433 10.2236155222020368  8.8251984310684435
  8.6759126780002855  7.5870510097132868  7.3713493005456492
 18.7663357378293583  7.7516642853431428  7.4707614031709522
  8.8274967263893878  2.0910031267062577  8.4639665157316575
 18.8894822614023425  2.2242476993310958  8.5826369320261069
  9.9174937589659429  9.0333377643860260 10.1637746780701601
 19.9301845906141111  9.2256787902586250 10.3278658374278187
  1.3715770000347056  5.1105991230891394  2.4769177513528615
 11.4274777697125600  4.9710999306607908  2.8490495683603960
  9.5877542810237202  5.4358999160989248  0.7477343295927215
 19.6772496696770673  5.4842453978504038  0.8588690303068869
  8.7787700914751703  7.0429724869947634  3.4989582789276743
 18.8988351250369213  7.2362856573784526  3.6454852101104178
  4.7444074100366498  6.7419161467278022  7.3474296167937583
 14.8990899432341628  6.9160121077804479  7.4122282904261505
  9.6403176928554331  4.1247421773550599  5.1866493056755196
 19.9243723204712566  4.2487837917816504  5.2897109754582798
  6.8426427747936813  5.0979367685631418  3.6602825975136648
 17.0145258179945245  5.2624614697465342  3.8169657381343316
 11.5428119028109606  7.0140906437000758  0.5030501870985029
  6.6386825463206875  7.1817394699101094  0.4836754103198458
 16.7548553908074389  7.3541437916717536  0.6227987768611444
  6.6207141986416786  2.1673249926483620  5.4309159217392509
 16.7502262538516895  2.3373430020366079  5.5441731864711752
  1.5996789331347625  7.0253253654973236  5.4114954817052219
 11.6981001390053159  7.2082397212154321  5.5602509902909665
  1.5645279451566976  2.0551906492255774  0.3858784553742963
 11.6804215268843290  2.2914901983913345  0.5338813548319068
 11.6824098198296173  8.2100889381322606  0.7542133954059338
 11.1786570840674973  6.4623665415917069  1.5355304848642293
 12.6277460323949011  6.5782433559391835  0.1200924302484462
 10.7038597980007193  6.8855997472557711 -0.3803936013526067
  2.8022934677960776  0.7570515988845619  9.2500125545893024
 12.9086457593097315  1.0095511072329333  9.3726222937300481
  0.2889111105261592  0.8427441919583960  1.4617703856832651
 10.3892343079374516  1.1004988266589808  1.6075456445691458
  5.3959629642141378  8.2657361564468896  9.2519640059814741
 15.5003518070734430  8.4110289321743110  9.3807877478271244
  7.8573235863970883  8.4119325511072329  1.6009969421778671
 17.9349757850777216  8.6046821020159268  1.7580667729259745
  4.1482479063224131  9.5694667427238755  3.0724728789828037
 14.2464408674530869  9.7354568610807952  3.1964803326809430
  2.8132591505737454  5.7633828667101570  4.3127645973625848
 12.9106784675062727  5.9376031064668870  4.4660857129447766
  0.3237673759854698  5.8090082828609155  6.4840640692362070
 10.4260595268049840  6.0035846131424480  6.6488574505027822
  5.3344954781986020  3.2648650333830171  4.2471988020548679
 15.4692988138764278  3.4466062012219236  4.3668380954287978
  7.7842858518081055  3.4185238084581395  6.5846086745199459
 17.9561815782721155  3.5749759218559092  6.6678352670814567
  4.1255147295157979  4.5591269561808376  8.0067043763829044
 14.2829794716960077  4.7286464954485510  8.0866789966736814
  7.8367124845828702  1.1123750275401363  4.1364578284551987
 17.9493168977178819  1.2605002237888838  4.2518653268003277
  5.5307883079659161  0.9065515900689289  6.6383639139138104
 15.6554957790879126  1.0728655058016721  6.7426208185121155
  0.4937905865180003  8.2458979483463288  4.1780105342959484
 10.5907835116790601  8.4367307456218903  4.3370280182478913
  2.7865204839536477  8.1379361272811508  6.6760493767662181
 12.9013790814767155  8.3075378113411542  6.8237090893497658
  9.2348432995316507  9.7842642084700664  8.0105796107757712
 19.3266777995928933  9.9300611491220785  8.1577311801614183
  7.8439662672356629  6.0490356887062298  9.1565160697579593
 17.9932635053387706  6.2449196704044363  9.3000173690952206
  5.5149119813502017  5.9467753349922248  1.6905706299317367
 15.6643671955427006  6.0990015071527974  1.8376962797607976
  0.4834515724999955  3.2397706431209530  9.1041199677140536
 10.6224824129129427  3.5421580321593655  9.3018458217540871
  2.7468540338498140  3.1734273849864185  1.6499098546436828
 12.9075959562117806  3.3674414115011939  1.8067184042757902
  9.1073741775237860  4.7536293117076447  2.9894362131212664
 19.2916080107457297  4.9665138300246303  3.1330406397632657
  1.5786703337760235  6.5728251954416734  0.4519580268332841
  1.5758436647030607  1.5754478538672760  5.3831232514717424
 11.7385307010268729  1.7533854789154462  5.5324284004956867
  6.6584064015090565  7.1903682970453149  4.9915150267109683
 16.7556898775483205  7.3527285955377293  5.1597704292190789
  6.6815074073693026  2.2233620998782664  0.0303101710381985
 16.7390466349836906  2.4023945629077614  0.0951928886062893
